clingo version 5.2.2
Reading from ...t_all/instances/0007-visitall-24-1.asp ...
Solving...
UNSATISFIABLE

Models       : 0
Calls        : 1
Time         : 0.014s (Solving: 0.00s 1st Model: 0.00s Unsat: 0.00s)
CPU Time     : 0.013s
